>> Start of run:  27-SEP-2010   9:17:34

reinit: Reading from standard input
************************** Dump of input data file ****************************
# Label
SystemLabel wat5sio2-a
# Optimisation
MD.TypeOfRun CG
MD.NumCGSteps 9000
MD.VariableCell .true.
MD.UseSaveXV .true.
MD.UseSaveCG .true.
MD.UseSaveDM .true.
# SCF
SolutionMethod diagon
MaxSCFIterations 500
DM.MixingWeight 0.05
DM.NumberPulay 30
SpinPolarized F
# Basis set
MeshCutoff 200 Ry
# Functional
XC.Functional GGA
XC.Authors RPBE
# I/O
LongOutput true
WriteMDhistory true
WriteMDXmol true
WriteCoorXmol true
WriteCoorCerius true
WriteDM true
NumberOfSpecies    3
NumberOfAtoms      213
%block ChemicalSpeciesLabel
    1   1   H
    2   8   O
    3  14   Si
%endblock ChemicalSpeciesLabel
%block PAO.BasisSizes
 H  DZP
 O  DZP
 Si DZP
%endblock PAO.BasisSizes
LatticeConstant    1.00000 Ang
%block LatticeVectors
   14.676672   -0.035579    0.000000
   -0.046750   14.798342    0.000000
    0.000000    0.000000   40.000000
%endblock LatticeVectors
%block GeometryConstraints
  position from  1  to 1
  position from  21 to 7
  position from  27 to 13
  position from  33 to 19
  position from  39 to 25
  position from  45 to 31
  position from  51 to 37
  position from  57 to 43
  position from  63 to 49
  stress 3 4 5
%endblock GeometryConstraints
AtomicCoordinatesFormat Ang
%block AtomicCoordinatesAndAtomicSpecies
    2.97003781    3.37939138    2.43762000   3  Si         1
    3.25019165    0.97142009    4.29583805   3  Si         2
    0.82881234    0.88101269    6.16682632   3  Si         3
    0.82992151    3.28510033    8.04223961   3  Si         4
    3.23763359    3.27899297    9.94374657   3  Si         5
    2.78651946    0.87228475   11.82432401   3  Si         6
    2.96040139    8.27860300    2.43762000   3  Si         7
    3.31133415    5.86878952    4.28450800   3  Si         8
    0.89648741    5.77731209    6.15605600   3  Si         9
    0.82035735    8.16954963    7.99228500   3  Si        10
    3.22228921    8.17041787    9.84869400   3  Si        11
    2.79558047    5.81133779   11.79182200   3  Si        12
    2.95076596   13.17781362    2.43762000   3  Si        13
    3.29809724   10.77276061    4.28692500   3  Si        14
    0.88304426   10.68723764    6.16320700   3  Si        15
    0.84978668   13.09686199    8.01428700   3  Si        16
    3.23950378   13.07465635    9.94148700   3  Si        17
    2.77887969   10.64761507   11.76632500   3  Si        18
    7.84142509    3.37334709    2.43762000   3  Si        19
    8.08816546    0.94511151    4.31697200   3  Si        20
    5.67599263    0.87119505    6.18665000   3  Si        21
    5.66460663    3.27094382    8.03512300   3  Si        22
    8.12119282    3.32763586    9.86023600   3  Si        23
    7.69941409    0.92874069   11.71587700   3  Si        24
    7.83178867    8.27255870    2.43762000   3  Si        25
    8.21033658    5.86246773    4.29183700   3  Si        26
    5.75754860    5.75566741    6.13173300   3  Si        27
    5.70467130    8.17156702    7.96491400   3  Si        28
    8.15664223    8.32066091    9.76076200   3  Si        29
    7.68240443    5.99885193   11.50998800   3  Si        30
    7.82215224   13.17177032    2.43762000   3  Si        31
    8.17864335   10.76908982    4.28078100   3  Si        32
    5.74467599   10.69618950    6.13638000   3  Si        33
    5.69883580   13.06174802    8.02913700   3  Si        34
    8.15273635   13.12583923    9.83587100   3  Si        35
    7.71895771   10.79022077   11.69678500   3  Si        36
   12.71281137    3.36730379    2.43762000   3  Si        37
   12.99899953    0.96501948    4.28999500   3  Si        38
   10.58247633    0.89234214    6.13931700   3  Si        39
   10.59863302    3.29412375    8.00719800   3  Si        40
   12.99017619    3.33713513    9.91224400   3  Si        41
   12.54704232    0.91569439   11.73093300   3  Si        42
   12.70317595    8.26651441    2.43762000   3  Si        43
   13.09262719    5.87234446    4.27933100   3  Si        44
   10.66354145    5.79001935    6.13512600   3  Si        45
   10.60599998    8.23911275    7.91798600   3  Si        46
   12.95990169    8.26335751    9.86855800   3  Si        47
   12.51004264    5.87464378   11.75819500   3  Si        48
   12.69353952   13.16572602    2.43762000   3  Si        49
   13.07679238   10.79161785    4.26006200   3  Si        50
   10.65437134   10.70953823    6.08930600   3  Si        51
   10.60161695   13.09277206    7.95809700   3  Si        52
   12.98618541   13.14729972    9.84911900   3  Si        53
   12.56546171   10.77934245   11.72313600   3  Si        54
    2.56649768    4.68775877    3.39377800   2  O         55
    3.79518643    2.22050588    3.34238600   2  O         56
    4.51076684    0.31506993    5.14759300   2  O         57
    2.08806595    1.57317253    5.32487100   2  O         58
    0.16913324    2.05525943    7.14285800   2  O         59
    2.09132961    2.64690267    8.90825500   2  O         60
[...]
    5.71849176    1.63795987   15.19633115   2  O        199
    6.48125741    2.24865393   15.00779819   1  H        200
    4.96715613    2.00254271   14.69655252   1  H        201
   10.54267076    8.92614480   13.73288777   2  O        202
   10.74231952    8.04967415   13.34890579   1  H        203
   11.40347308    9.33563657   13.93206404   1  H        204
    7.93000731    3.10146948   14.63631450   2  O        205
    8.00802870    3.91625389   14.10210616   1  H        206
    8.44736030    2.41797571   14.17350654   1  H        207
    3.94204077    7.61633802   14.48155722   2  O        208
    3.86740258    8.48685372   14.03835871   1  H        209
    3.84923163    7.77413877   15.42983602   1  H        210
    5.29161095   13.96338372   14.27381352   2  O        211
    5.97140187   13.42261723   13.84100797   1  H        212
    5.70056710   14.80067151   14.67836580   1  H        213
%endblock AtomicCoordinatesAndAtomicSpecies
************************** End of input data file *****************************

reinit: -----------------------------------------------------------------------
reinit: System Name:
reinit: -----------------------------------------------------------------------
reinit: System Label: wat5sio2-a
reinit: -----------------------------------------------------------------------

initatom: Reading input for the pseudopotentials and atomic orbitals ----------
 Species number:            1  Label: H Atomic number:           1
 Species number:            2  Label: O Atomic number:           8
 Species number:            3  Label: Si Atomic number:          14
Ground state valence configuration:   1s01
Reading pseudopotential information in formatted form from H.psf
Ground state valence configuration:   2s02  2p04
Reading pseudopotential information in formatted form from O.psf
Ground state valence configuration:   3s02  3p02
Reading pseudopotential information in formatted form from Si.psf
resizes: Read basis size for species H = dzp
resizes: Read basis size for species O = dzp
resizes: Read basis size for species Si = dzp
For H, standard SIESTA heuristics set lmxkb to 2
 (one more than the basis l, including polarization orbitals).
Use PS.lmax or PS.KBprojectors blocks to override.
For O, standard SIESTA heuristics set lmxkb to 3
 (one more than the basis l, including polarization orbitals).
Use PS.lmax or PS.KBprojectors blocks to override.
For Si, standard SIESTA heuristics set lmxkb to 3
 (one more than the basis l, including polarization orbitals).
Use PS.lmax or PS.KBprojectors blocks to override.

<basis_specs>
H                    Z=   1    Mass=  1.0100        Charge=  0.0000
Lmxo=0 Lmxkb=2     BasisType=split      Semic=F
L=0  Nsemic=0  Cnfigmx=1
          n=1  nzeta=2  polorb=1
               vcte:    0.0000
               rinn:    0.0000
                rcs:    0.0000      0.0000
            lambdas:    1.0000      1.0000
L=0  Nkbl=1  erefs: 0.17977+309
L=1  Nkbl=1  erefs: 0.17977+309
L=2  Nkbl=1  erefs: 0.17977+309
</basis_specs>

atom: Called for H   (Z =   1)

read_vps: Pseudopotential generation method:
read_vps: ATM 3.2.2 Troullier-Martins

read_vps: Valence configuration (pseudopotential and basis set generation):
1s( 1.00) rc: 1.33
2p( 0.00) rc: 1.33
3d( 0.00) rc: 0.37
Total valence charge:    1.00000

xc_check: Exchange-correlation functional:
xc_check: GGA RPBE
xc_check: WARNING: Pseudopotential generated with GGA Perdew, Burke & Ernzerhof 1996 functional
V l=0 = -2*Zval/r beyond r=  1.2656
V l=1 = -2*Zval/r beyond r=  1.2498
V l=2 = -2*Zval/r beyond r=  0.3563
All V_l potentials equal beyond r=  1.2656
This should be close to max(r_c) in ps generation
All pots = -2*Zval/r beyond r=  1.2656

VLOCAL1: 99.0% of the norm of Vloc inside     27.100 Ry
VLOCAL1: 99.9% of the norm of Vloc inside     61.762 Ry
atom: Maximum radius for 4*pi*r*r*local-pseudopot. charge    1.48935
atom: Maximum radius for r*vlocal+2*Zval:    1.24984
GHOST: No ghost state for L =  0
GHOST: No ghost state for L =  1
GHOST: No ghost state for L =  2

KBgen: Kleinman-Bylander projectors:
   l= 0   rc=  1.398961   el= -0.485803   Ekb= -2.000785   kbcos= -0.355577
   l= 1   rc=  1.470814   el=  0.001005   Ekb= -0.423466   kbcos= -0.024820
   l= 2   rc=  1.489346   el=  0.001895   Ekb= -0.482530   kbcos= -0.001603

KBgen: Total number of  Kleinman-Bylander projectors:    9
atom: -------------------------------------------------------------------------

atom: SANKEY-TYPE ORBITALS:
atom: Selected multiple-zeta basis: split

SPLIT: Orbitals with angular momentum L= 0

SPLIT: Basis orbitals for state 1s

SPLIT: PAO cut-off radius determined from an
SPLIT: energy shift=  0.020000 Ry

   izeta = 1
                 lambda =    1.000000
                     rc =    4.708991
                 energy =   -0.466459
                kinetic =    0.995263
    potential(screened) =   -1.461721
       potential(ionic) =   -1.981935

   izeta = 2
                 rmatch =    3.759707
              splitnorm =    0.150000
                 energy =   -0.349285
                kinetic =    1.597774
    potential(screened) =   -1.947059
       potential(ionic) =   -2.483300

POLgen: Perturbative polarization orbital with L=  1

POLgen: Polarization orbital for state 1s

   izeta = 1
                     rc =    4.708991
                 energy =    0.774796
                kinetic =    1.495153
    potential(screened) =   -0.720357
       potential(ionic) =   -1.212714
atom: Total number of Sankey-type orbitals:  5

atm_pop: Valence configuration(local Pseudopot. screening):
 1s( 1.00)
Vna: chval, zval:    1.00000   1.00000

Vna:  Cut-off radius for the neutral-atom potential:   4.708991

atom: _________________________________________________________________________

<basis_specs>
O                    Z=   8    Mass=  16.000        Charge=  0.0000
Lmxo=1 Lmxkb=3     BasisType=split      Semic=F
L=0  Nsemic=0  Cnfigmx=2
          n=1  nzeta=2  polorb=0
               vcte:    0.0000
               rinn:    0.0000
                rcs:    0.0000      0.0000
            lambdas:    1.0000      1.0000
L=1  Nsemic=0  Cnfigmx=2
[...]
    8.14079881    8.28180626    9.76076200   3  Si        29
    7.66482611    5.97344304   11.50998800   3  Si        30
    7.81446170   13.10290738    2.43762000   3  Si        31
    8.16626286   10.71536528    4.28078100   3  Si        32
    5.74050582   10.63939144    6.13638000   3  Si        33
    5.69824060   12.99048640    8.02913700   3  Si        34
    8.14385000   13.05773354    9.83587100   3  Si        35
    7.70817828   10.73570335   11.69678500   3  Si        36
   12.67424392    3.36518029    2.43762000   3  Si        37
   12.95598289    0.97793037    4.28999500   3  Si        38
   10.54761073    0.90220337    6.13931700   3  Si        39
   10.56718292    3.28939054    8.00719800   3  Si        40
   12.95061752    3.33559605    9.91224400   3  Si        41
   12.50549852    0.92825239   11.73093300   3  Si        42
   12.67172103    8.23455928    2.43762000   3  Si        43
   13.05638201    5.85552357    4.27933100   3  Si        44
   10.63547629    5.77018935    6.13512600   3  Si        45
   10.58167047    8.20429387    7.91798600   3  Si        46
   12.92756510    8.23179258    9.86855800   3  Si        47
   12.47579118    5.85696703   11.75819500   3  Si        48
   12.66919713   13.10393927    2.43762000   3  Si        49
   13.04770990   10.74483427    4.26006200   3  Si        50
   10.63344646   10.65975369    6.08930600   3  Si        51
   10.58431620   13.02840639    7.95809700   3  Si        52
   12.96081657   13.08604800    9.84911900   3  Si        53
   12.53810845   10.73189468   11.72313600   3  Si        54
    2.56450328    4.66293674    3.39377800   2  O         55
    3.78542890    2.21247562    3.34238600   2  O         56
    4.49581108    0.31967063    5.14759300   2  O         57
    2.08320538    1.56661521    5.32487100   2  O         58
    0.17152535    2.04299507    7.14285800   2  O         59
    2.08800948    2.63381510    8.90825500   2  O         60
[...]
    5.69812380    1.60629805   15.18390804   2  O        199
    6.45651978    2.22272645   14.99460789   1  H        200
    4.94222249    1.95829847   14.68204057   1  H        201
   10.53756645    8.89333131   13.73778261   2  O        202
   10.73631189    8.02375518   13.33738343   1  H        203
   11.40019616    9.29799595   13.93759522   1  H        204
    7.91965522    3.07559145   14.63390974   2  O        205
    7.99660069    3.88915754   14.09772888   1  H        206
    8.44189693    2.39558172   14.17175847   1  H        207
    3.93658450    7.56501554   14.49013065   2  O        208
    3.86291248    8.42950923   14.03478179   1  H        209
    3.84280870    7.73511131   15.43689247   1  H        210
    5.27388154   13.91700626   14.26478038   2  O        211
    5.94716297   13.36245888   13.83935180   1  H        212
    5.68522206   14.75428747   14.66666889   1  H        213

outcell: Unit cell vectors (Ang):
       14.626478   -0.014154    0.000000
       -0.025206   14.708208    0.000000
        0.000000    0.000000   40.000000

outcell: Cell vector modules (Ang)   :   14.626485   14.708230   40.000000
outcell: Cell angles (23,13,12) (deg):     90.0000     90.0000     90.1536
outcell: Cell volume (Ang**3)        :   8605.1570

coxmol: Writing XMOL coordinates into file wat5sio2-a.xyz

coceri: Writing CERIUS coordinates into file wat5sio2-a.xtl

siesta: Eigenvalues (eV):
  ik is    eps
   1  1 -26.41 -26.27 -26.24 -26.22 -26.21 -26.15 -26.10 -26.05 -26.03 -26.02
        -26.00 -25.98 -25.97 -25.95 -25.87 -25.82 -25.81 -25.78 -25.76 -25.76
        -25.74 -25.70 -25.62 -25.60 -25.58 -25.54 -25.49 -25.43 -25.38 -25.36
        -25.32 -25.30 -25.27 -25.24 -25.21 -25.20 -25.18 -25.17 -25.16 -25.13
        -25.11 -25.06 -25.01 -24.99 -24.96 -24.94 -24.91 -24.86 -24.85 -24.84
        -24.82 -24.82 -24.79 -24.79 -24.74 -24.73 -24.70 -24.68 -24.67 -24.65
        -24.65 -24.64 -24.63 -24.62 -24.61 -24.60 -24.60 -24.59 -24.58 -24.58
        -24.58 -24.57 -24.56 -24.56 -24.55 -24.55 -24.54 -24.53 -24.52 -24.51
        -24.51 -24.51 -24.50 -24.49 -24.49 -24.48 -24.47 -24.47 -24.46 -24.46
        -24.44 -24.43 -24.42 -24.42 -24.41 -24.41 -24.40 -24.40 -24.38 -24.35
        -24.35 -24.34 -24.33 -24.29 -24.27 -24.27 -24.25 -24.20 -24.16 -24.10
        -23.96 -23.62 -23.38 -16.26 -15.92 -15.89 -15.86 -15.85 -15.65 -15.55
        -15.51 -15.48 -15.47 -15.46 -15.45 -15.42 -15.41 -15.19 -15.18 -15.16
        -15.13 -15.10 -15.08 -14.91 -14.81 -14.78 -14.76 -14.71 -14.70 -14.64
        -14.36 -14.35 -14.33 -14.31 -14.31 -14.28 -14.15 -14.00 -14.00 -13.91
        -13.90 -13.86 -13.78 -13.77 -13.75 -13.68 -13.66 -13.54 -13.52 -13.49
        -13.44 -13.38 -13.19 -13.17 -13.12 -13.08 -13.04 -13.01 -12.99 -12.96
        -12.89 -12.86 -12.86 -12.82 -12.81 -12.80 -12.78 -12.78 -12.75 -12.73
        -12.72 -12.68 -12.67 -12.62 -12.60 -12.59 -12.56 -12.56 -12.52 -12.48
        -12.47 -12.44 -12.43 -12.41 -12.41 -12.39 -12.38 -12.37 -12.35 -12.34
        -12.32 -12.30 -12.30 -12.29 -12.27 -12.26 -12.26 -12.25 -12.24 -12.22
        -12.22 -12.20 -12.20 -12.19 -12.16 -12.16 -12.15 -12.14 -12.14 -12.12
        -12.07 -12.07 -12.03 -12.00 -11.75 -11.66 -11.10 -11.04 -11.03 -10.71
        -10.71 -10.65 -10.64 -10.63 -10.59 -10.50 -10.44 -10.36 -10.36 -10.34
        -10.32 -10.29 -10.27 -10.25 -10.23 -10.20 -10.19 -10.17 -10.16 -10.14
        -10.11 -10.10 -10.09 -10.08 -10.06 -10.05 -10.05 -10.02 -10.01 -10.01
         -9.99  -9.98  -9.96  -9.95  -9.90  -9.90  -9.89  -9.85  -9.83  -9.81
         -9.80  -9.75  -9.72  -9.69  -9.68  -9.67  -9.66  -9.64  -9.63  -9.61
         -9.59  -9.59  -9.56  -9.55  -9.54  -9.53  -9.50  -9.49  -9.49  -9.48
         -9.46  -9.44  -9.43  -9.43  -9.42  -9.39  -9.38  -9.37  -9.35  -9.35
         -9.34  -9.32  -9.32  -9.31  -9.30  -9.28  -9.27  -9.24  -9.23  -9.22
         -9.22  -9.19  -9.18  -9.17  -9.13  -9.11  -9.11  -9.07  -9.07  -9.06
         -9.05  -9.03  -9.01  -9.01  -9.00  -8.99  -8.98  -8.95  -8.95  -8.94
         -8.92  -8.90  -8.89  -8.87  -8.85  -8.82  -8.79  -8.77  -8.76  -8.75
         -8.73  -8.72  -8.71  -8.70  -8.68  -8.67  -8.66  -8.64  -8.62  -8.61
         -8.59  -8.57  -8.57  -8.56  -8.55  -8.54  -8.53  -8.52  -8.51  -8.51
         -8.50  -8.50  -8.49  -8.48  -8.46  -8.46  -8.45  -8.44  -8.44  -8.43
         -8.42  -8.41  -8.40  -8.39  -8.38  -8.37  -8.35  -8.34  -8.34  -8.32
         -8.31  -8.28  -8.28  -8.25  -8.24  -8.22  -8.20  -8.17  -8.12  -8.11
         -8.08  -8.06  -8.05  -8.04  -8.04  -8.03  -8.01  -7.99  -7.97  -7.95
         -7.94  -7.92  -7.91  -7.91  -7.90  -7.89  -7.89  -7.88  -7.86  -7.83
         -7.82  -7.81  -7.81  -7.80  -7.79  -7.78  -7.77  -7.76  -7.75  -7.75
         -7.74  -7.73  -7.72  -7.72  -7.71  -7.69  -7.68  -7.68  -7.66  -7.66
         -7.66  -7.65  -7.65  -7.64  -7.62  -7.61  -7.60  -7.58  -7.57  -7.54
         -7.54  -7.53  -7.50  -7.50  -7.49  -7.48  -7.47  -7.46  -7.44  -7.40
         -7.39  -7.37  -7.37  -7.35  -7.35  -7.32  -7.28  -7.23  -7.21  -7.17
         -7.08  -7.02  -6.99  -6.91  -6.76  -6.72  -6.63  -6.39  -6.07  -5.68
         -0.75  -0.43  -0.35  -0.34  -0.29  -0.28  -0.18  -0.17  -0.11  -0.11
         -0.06  -0.03   0.02   0.06   0.25   0.30   0.32   0.39   0.42   0.43
          0.46   0.49   0.51   0.56   0.57   0.62   0.64   0.69   0.73   0.75
          0.76   0.78   0.96   0.97   1.00   1.00   1.06   1.07   1.10   1.13
          1.26   1.30   1.31   1.34   1.37   1.38   1.39   1.43   1.45   1.48
          1.49   1.52   1.55   1.58   1.61   1.62   1.64   1.65   1.67   1.68
          1.70   1.72   1.75   1.78   1.79   1.82   1.83   1.87   1.89   1.91
          1.92   1.94   1.96   1.99   2.01   2.03   2.05   2.08   2.10   2.10
          2.12   2.14   2.14   2.15   2.17   2.18   2.19   2.21   2.23   2.24
          2.29   2.29   2.30   2.31   2.33   2.34   2.35   2.35   2.38   2.39
          2.41   2.41   2.44   2.46   2.47   2.48   2.52   2.53   2.54   2.60
          2.61   2.66   2.67   2.71   2.72   2.74   2.77   2.77   2.81   2.81
          2.84   2.86   2.92   2.93   2.99   3.05   3.13   3.13   3.18   3.19
[...]
         80.26  80.40  80.45  80.63  80.83  80.90  80.99  81.10  81.22  81.31
         81.43  81.49  81.83  81.87  81.94  82.23  82.50  82.75  82.80  82.85
         83.08  83.26  83.48  83.56  83.63  83.81  83.91  84.02  84.04  84.23
         84.31  84.50  84.54  84.67  84.71  84.98  85.08  85.15  85.32  85.37
         85.50  85.61  85.83  85.93  85.99  86.06  86.13  86.18  86.25  86.33
         86.47  86.55  86.60  86.64  86.70  86.79  86.90  86.96  86.98  87.01
         87.06  87.14  87.25  87.28  87.40  87.50  87.54  87.59  87.62  87.70
         87.94  88.00  88.03  88.15  88.19  88.29  88.43  88.55  88.68  88.80
         88.89  88.94  89.08  89.16  89.27  89.37  89.43  89.46  89.50  89.72
         89.79  89.84  89.99  90.16  90.21  90.24  90.40  90.51  90.62  90.73
         90.93  91.07  91.21  91.28  91.34  91.60  91.65  91.96  92.13  92.25
         92.39  92.48  94.23  94.37  95.03  95.13  95.27  96.06  96.69  97.38
         97.75  98.41  98.62  98.97  99.25  99.92 100.33 100.74 101.44 101.60
        102.01 102.09 102.48 103.36 103.68 103.94 104.40 104.69 104.82 105.38
        110.94
siesta: Fermi energy =      -5.042985 eV

siesta: Program's energy decomposition (eV):
siesta: Eions   =     82909.569792
siesta: Ena     =     11416.669397
siesta: Ekin    =     38235.486090
siesta: Enl     =     -9605.367121
siesta: DEna    =       219.856199
siesta: DUscf   =        62.928880
siesta: DUext   =         0.000000
siesta: Exc     =    -13281.885400
siesta: eta*DQ  =         0.000000
siesta: Emadel  =         0.000000
siesta: Ekinion =         0.000000
siesta: Eharris =    -55861.881595
siesta: Etot    =    -55861.881748
siesta: FreeEng =    -55861.881748

siesta: Final energy (eV):
siesta:       Kinetic =   38235.486090
siesta:       Hartree =  618431.243608
siesta:    Ext. field =       0.000000
siesta:   Exch.-corr. =  -13281.885400
siesta:  Ion-electron =-1270826.878710
siesta:       Ion-ion =  571580.152664
siesta:       Ekinion =       0.000000
siesta:         Total =  -55861.881748

siesta: Atomic forces (eV/Ang):
siesta:      1   -0.062409   -0.169004   -0.324818
siesta:      2    0.006971    0.017871    0.034328
siesta:      3   -0.000592    0.008979    0.002148
siesta:      4    0.033654   -0.021317   -0.010011
siesta:      5    0.018464   -0.001744    0.016501
siesta:      6    0.003343   -0.022186   -0.028324
siesta:      7   -0.060669   -0.056098   -0.184232
siesta:      8    0.143354    0.012177    0.072426
siesta:      9   -0.522575    0.117601   -0.427081
siesta:     10   -0.377017    0.012495    0.286578
siesta:     11    0.150530   -0.063714    0.034477
siesta:     12   -0.188750    0.069784   -0.080049
siesta:     13   -0.111286    0.240090    0.029366
siesta:     14    0.013256    0.053304    0.131311
siesta:     15   -0.368707    0.151906   -0.357684
siesta:     16   -0.323466    0.446519   -0.020355
siesta:     17   -0.187936    0.456590   -0.097829
siesta:     18    0.064840   -0.064697   -0.098933
siesta:     19   -0.005208   -0.160885   -0.160652
siesta:     20    0.258213   -0.459289   -0.320628
siesta:     21   -0.199433   -0.560096    0.334025
siesta:     22    0.422388   -0.147061    0.177047
siesta:     23   -0.250628    0.093147   -0.149548
siesta:     24   -0.052089   -0.159731   -0.531583
siesta:     25   -0.002907   -0.137369   -0.124403
siesta:     26   -0.018821    0.048787    0.068934
siesta:     27    0.038742    0.037437   -0.050088
siesta:     28   -0.017562    0.106757    0.207403
siesta:     29    0.044913    0.038470   -0.182242
siesta:     30   -0.115023   -0.425300    0.569951
siesta:     31   -0.098217    0.372291    0.193687
siesta:     32   -0.055230    0.103806    0.100905
siesta:     33    0.062347   -0.123294   -0.134038
siesta:     34    0.067105    0.594898   -0.283052
siesta:     35   -0.003144    0.616110    0.354763
siesta:     36   -0.055506   -0.316265    0.458739
siesta:     37   -0.011272   -0.021095   -0.159650
siesta:     38    0.508124   -0.578930   -0.146878
siesta:     39   -0.107694   -0.638584    0.344570
siesta:     40   -0.017355    0.086584    0.118117
siesta:     41    0.090558   -0.026034   -0.348189
siesta:     42    0.194484   -0.398544   -0.162770
siesta:     43   -0.029874   -0.052452   -0.203360
siesta:     44    0.232595   -0.134541    0.340493
siesta:     45    0.023200    0.056106   -0.095692
siesta:     46   -0.003682   -0.046567    0.106428
siesta:     47    0.401482   -0.259908   -0.337546
siesta:     48    0.289382    0.300912   -0.071812
siesta:     49   -0.074802    0.397726    0.096539
siesta:     50    0.343917    0.014087    0.345324
siesta:     51    0.075631   -0.138430   -0.123854
siesta:     52   -0.048249    0.651577   -0.363640
siesta:     53    0.753555    0.092696    0.479612
siesta:     54   -0.216775    0.608447   -0.237508
siesta:     55   -0.183277    0.197390    0.091506
siesta:     56    0.058931   -0.327408    0.090484
siesta:     57    0.146323   -0.156123   -0.024196
siesta:     58   -0.193091   -0.290927   -0.019309
siesta:     59   -0.067689   -0.009372    0.127009
siesta:     60   -0.127590   -0.055197    0.031972
[...]
siesta:    199   -0.027261   -0.012534    0.002982
siesta:    200    0.012830    0.006775   -0.014199
siesta:    201    0.002685   -0.001115   -0.004797
siesta:    202   -0.026798   -0.015047   -0.007507
siesta:    203    0.002252   -0.005446    0.002594
siesta:    204    0.027023    0.013680    0.005801
siesta:    205   -0.002372   -0.008293    0.009394
siesta:    206   -0.005488    0.000815   -0.008335
siesta:    207    0.005621   -0.020935    0.006182
siesta:    208   -0.002682   -0.015361    0.024989
siesta:    209   -0.004001    0.001766   -0.006183
siesta:    210   -0.000349   -0.007253   -0.011669
siesta:    211   -0.009301   -0.036957   -0.023605
siesta:    212   -0.000604    0.004680   -0.002258
siesta:    213    0.007114    0.002997    0.006625
siesta: ----------------------------------------
siesta:    Tot    0.285120   -0.319440   -0.312971

siesta: Stress tensor (static) (eV/Ang**3):
siesta:    -0.000112   -0.000038   -0.000185
siesta:    -0.000038   -0.000125   -0.000494
siesta:    -0.000185   -0.000494   -0.000135

siesta: Constrained stress tensor (static) (eV/Ang**3):
siesta:    -0.000112   -0.000038    0.000000
siesta:    -0.000038   -0.000125    0.000000
siesta:     0.000000    0.000000    0.000000

siesta: Cell volume =       8605.157003 Ang**3

siesta: Pressure (static):
siesta:                Solid            Molecule  Units
siesta:           0.00000135         -0.00003104  Ry/Bohr**3
siesta:           0.00012389         -0.00284999  eV/Ang**3
siesta:           0.19849619         -4.56624427  kBar

siesta: Electric dipole (a.u.)  =    0.000000    0.000000   -3.429055
siesta: Electric dipole (Debye) =    0.000000    0.000000   -8.715794

elaps:  Routine       Calls   Time/call    Tot.time        %
elaps:  siesta            1    9579.097    9579.097   100.00
elaps:  Setup             1       0.507       0.507     0.01
elaps:  bands             1       0.001       0.001     0.00
elaps:  writewave         1       0.001       0.001     0.00
elaps:  KSV_init          1       0.001       0.001     0.00
elaps:  IterMD           51     187.815    9578.565    99.99
elaps:  hsparse          52       1.440      74.889     0.78
elaps:  overfsm         102       0.160      16.312     0.17
elaps:  IterSCF         355      26.720    9485.756    99.03
elaps:  kinefsm         102       0.160      16.367     0.17
elaps:  nlefsm          102       1.149     117.197     1.22
elaps:  DHSCF           355      18.961    6731.234    70.27
elaps:  DHSCF1           51       0.241      12.290     0.13
elaps:  DHSCF2           51      11.702     596.794     6.23
elaps:  REORD          2942       0.004      10.939     0.11
elaps:  POISON          406       0.995     403.914     4.22
elaps:  DHSCF3          355      15.176    5387.519    56.24
elaps:  rhoofd          355       5.193    1843.468    19.24
elaps:  cellXC          355       3.238    1149.506    12.00
elaps:  vmat            355       5.623    1996.194    20.84
elaps:  diagon          304       7.812    2374.812    24.79
elaps:  rdiag           304       7.212    2192.308    22.89
elaps:  rdiag1          304       0.268      81.385     0.85
elaps:  rdiag2          304       1.300     395.220     4.13
elaps:  rdiag3          304       4.761    1447.228    15.11
elaps:  rdiag4          304       0.681     207.039     2.16
elaps:  DHSCF4           51      14.371     732.933     7.65
elaps:  dfscf            51      13.474     687.156     7.17
elaps:  optical           1       0.001       0.001     0.00

>> End of run:  27-SEP-2010  11:57:13