     Program PWSCF v.4.3.2      starts on 29Aug2011 at 17: 6:15

     Current dimensions of program PWSCF are:
     Max number of different atomic species (ntypx) = 10
     Max number of k-points (npk) =  40000
     Max angular momentum in pseudopotentials (lmaxx) =  3
     Waiting for input...
     Reading input from stdin

     IMPORTANT: XC functional enforced from input :
     Exchange-correlation      = VDW-DF ( 1 4 4 0 1)
     EXX-fraction              =        0.00
     Any further DFT definition will be discarded
     Please, verify this is what you really want

               file S.rpb-paw_kj.UPF: wavefunction(s)  3P renormalized
               file O.rpb-paw_kj.UPF: wavefunction(s)  2P renormalized
               file H.rpb-paw_kj.UPF: wavefunction(s)  1S renormalized
               file C.rpb-paw_kj.UPF: wavefunction(s)  2P renormalized

     gamma-point specific algorithms are used

     Subspace diagonalization in iterative solution of the eigenvalue problem:
     a serial algorithm will be used

     bravais-lattice index     =           14
     lattice parameter (alat)  =      10.6649  a.u.
     unit-cell volume          =    4147.8944 (a.u.)^3
     number of atoms/cell      =           62
     number of atomic types    =            5
     number of electrons       =       236.00
     number of Kohn-Sham states=          142
     kinetic-energy cutoff     =      50.0000  Ry
     charge density cutoff     =     500.0000  Ry
     convergence threshold     =      1.0E-06
     mixing beta               =       0.7000
     number of iterations used =            8  plain     mixing
     Exchange-correlation      = VDW-DF ( 1 4 4 0 1)
     EXX-fraction              =        0.00
     nstep                     =          500

     celldm(1)=  10.664858  celldm(2)=   1.810369  celldm(3)=   2.258027
     celldm(4)=   0.499698  celldm(5)=   0.094647  celldm(6)=   0.256694

     crystal axes: (cart. coord. in units of alat)
               a(1) = (   1.000000   0.000000   0.000000 )
               a(2) = (   0.464711   1.749709   0.000000 )
               a(3) = (   0.213715   1.110687   1.954324 )

     reciprocal axes: (cart. coord. in units 2 pi/alat)
               b(1) = (  1.000000 -0.265594  0.041588 )
               b(2) = (  0.000000  0.571524 -0.324810 )
               b(3) = (  0.000000  0.000000  0.511686 )

     PseudoPot. # 1 for Na read from file:
     /gpfs/home/aasfu/espresso-4.3.1/pseudo/Na.rpb-paw_kj.UPF
     MD5 check sum: 9de12eab746618a655d8125ffec52c87
     Pseudo is Projector augmented-wave, Zval =  9.0
     Generated using "atomic" code by A. Dal Corso  (Quantum ESPRESSO distribution)
     Shape of augmentation charge: PSQ
     Using radial grid of 1121 points,  4 beta functions with:
                l(1) =   0
                l(2) =   0
                l(3) =   1
                l(4) =   1
     Q(r) pseudized with 0 coefficients

     PseudoPot. # 2 for  S read from file:
     /gpfs/home/aasfu/espresso-4.3.1/pseudo/S.rpb-paw_kj.UPF
     MD5 check sum: 5c8e0afabdfd000ad66aa37c1db9ada0
     Pseudo is Projector augmented-wave + core cor, Zval =  6.0
     Generated using "atomic" code by A. Dal Corso  (Quantum ESPRESSO distribution)
     Shape of augmentation charge: PSQ
     Using radial grid of 1151 points,  4 beta functions with:
                l(1) =   0
                l(2) =   0
                l(3) =   1
                l(4) =   1
     Q(r) pseudized with 0 coefficients

     PseudoPot. # 3 for  O read from file:
     /gpfs/home/aasfu/espresso-4.3.1/pseudo/O.rpb-paw_kj.UPF
     MD5 check sum: 5d8d2977d32af8c2a916e247784930dd
     Pseudo is Projector augmented-wave + core cor, Zval =  6.0
     Generated using "atomic" code by A. Dal Corso  (Quantum ESPRESSO distribution)
     Shape of augmentation charge: BESSEL
     Using radial grid of 1095 points,  4 beta functions with:
                l(1) =   0
                l(2) =   0
                l(3) =   1
                l(4) =   1
     Q(r) pseudized with 0 coefficients

     PseudoPot. # 4 for  H read from file:
     /gpfs/home/aasfu/espresso-4.3.1/pseudo/H.rpb-paw_kj.UPF
     MD5 check sum: 0658fb542d64c4760c4c84f387aebc81
     Pseudo is Projector augmented-wave, Zval =  1.0
     Generated using "atomic" code by A. Dal Corso  (Quantum ESPRESSO distribution)
     Shape of augmentation charge: PSQ
     Using radial grid of  929 points,  2 beta functions with:
                l(1) =   0
                l(2) =   0
     Q(r) pseudized with 0 coefficients

     PseudoPot. # 5 for  C read from file:
     /gpfs/home/aasfu/espresso-4.3.1/pseudo/C.rpb-paw_kj.UPF
     MD5 check sum: e3ca2f670da7df2ff427e485bf704357
     Pseudo is Projector augmented-wave + core cor, Zval =  4.0
     Generated using "atomic" code by A. Dal Corso  (Quantum ESPRESSO distribution)
     Shape of augmentation charge: BESSEL
     Using radial grid of 1073 points,  4 beta functions with:
                l(1) =   0
                l(2) =   0
                l(3) =   1
                l(4) =   1
     Q(r) pseudized with 0 coefficients

     vdW kernel table read from file vdW_kernel_table
     MD5 check sum: 2a73cc23e28154503cc02d2bc612f0de

     atomic species   valence    mass     pseudopotential
        Na             9.00    22.98977     Na( 1.00)
        S              6.00    32.06600      S( 1.00)
        O              6.00    15.99940      O( 1.00)
        H              1.00     1.00794      H( 1.00)
        C              4.00    12.01100      C( 1.00)

      2 Sym.Ops. (with inversion)

                                    s                        frac. trans.

      isym =  1     identity

 cryst.   s( 1) = (     1          0          0      )    f =(  0.0000000 )
                  (     0          1          0      )       (  0.0000000 )
                  (     0          0          1      )       (  0.0000000 )

 cart.    s( 1) = (  1.0000000  0.0000000  0.0000000 )    f =(  0.0000000 )
                  (  0.0000000  1.0000000  0.0000000 )       (  0.0000000 )
                  (  0.0000000  0.0000000  1.0000000 )       (  0.0000000 )

      isym =  2     inversion

[...]

     point group C_i (-1)
     there are  2 classes
     the character table:

       E     i
A_g    1.00  1.00
A_u    1.00 -1.00

     the symmetry operations in each class:
     E        1
     i        2

   Cartesian axes

     site n.     atom                  positions (alat units)
         1           C   tau(   1) = (   0.6756645   2.3972482   1.4669165  )
         2           C   tau(   2) = (   1.0027624   0.4631476   0.4874087  )
         3           C   tau(   3) = (   0.7693299   2.4371483   1.2452956  )
         4           C   tau(   4) = (   0.9090970   0.4232476   0.7090297  )
         5           H   tau(   5) = (   0.9360444   2.3531026   1.1966316  )
         6           H   tau(   6) = (   0.7423825   0.5072932   0.7576937  )
         7           C   tau(   7) = (   0.1896219   0.8342016   1.0805461  )
         8           C   tau(   8) = (   1.4888050   2.0261943   0.8737791  )
         9           C   tau(   9) = (   0.9693830   0.9461390   1.1399568  )
        10           C   tau(  10) = (   0.7090439   1.9142569   0.8143667  )
        11           C   tau(  11) = (   0.8813399   0.9023265   1.3731076  )
        12           C   tau(  12) = (   0.7970870   1.9580693   0.5812159  )
        13           H   tau(  13) = (   0.7170494   0.9872971   1.4280991  )
        14           H   tau(  14) = (   0.9613775   1.8730987   0.5262262  )
        15           C   tau(  15) = (   1.4614041   2.5070292   1.5302360  )
        16           C   tau(  16) = (   0.2170228   0.3533666   0.4240892  )
        17           H   tau(  17) = (   1.3863775   2.4764920   1.7053760  )
        18           H   tau(  18) = (   0.2920494   0.3839039   0.2489475  )
        19           C   tau(  19) = (   0.3026154   0.8543820   0.8509125  )
        20           C   tau(  20) = (   1.3758115   2.0060157   1.1034109  )
        21           H   tau(  21) = (   0.4701343   0.7607626   0.8303122  )
        22           H   tau(  22) = (   1.2082908   2.0996332   1.1240113  )
        23           O   tau(  23) = (   0.8537512   1.0791676   0.9967060  )
        24           O   tau(  24) = (   0.8246757   1.7812283   0.9576193  )
        25           O   tau(  25) = (   0.2325838   0.9635640   0.6769775  )
        26           O   tau(  26) = (   1.4458431   1.8968318   1.2773460  )
        27           O   tau(  27) = (   0.6322914   2.1029148   1.8130271  )
        28           O   tau(  28) = (   1.0461354   0.7574810   0.1412981  )
        29           O   tau(  29) = (   0.9641505   2.0467538   1.5450882  )
        30           O   tau(  30) = (   0.7142763   0.8136420   0.4092352  )
        31           O   tau(  31) = (   0.9620047   2.3735258   1.8226026  )
        32           O   tau(  32) = (   0.7164221   0.4868701   0.1317209  )
        33           S   tau(  33) = (   0.8187008   2.2159774   1.6748565  )
        34           S   tau(  34) = (   0.8597261   0.6444202   0.2794688  )
        35           O   tau(  35) = (   1.0537901   1.2955312   0.2497626  )
        36           O   tau(  36) = (   0.6246368   1.5648646   1.7045609  )
        37           H   tau(  37) = (   0.9451432   1.2545928   0.1175969  )
        38           H   tau(  38) = (   0.7332837   1.6058030   1.8367283  )
        39           H   tau(  39) = (   1.1188071   1.4580002   0.2317847  )
        40           H   tau(  40) = (   0.5596197   1.4023956   1.7225388  )
        41           O   tau(  41) = (   0.5346357   1.3822046   0.4919041  )
        42           O   tau(  42) = (   1.1437912   1.4781912   1.4624211  )
        43           H   tau(  43) = (   0.5859770   1.5382982   0.4288840  )
        44           H   tau(  44) = (   1.0924499   1.3220976   1.5254394  )
        45           H   tau(  45) = (   0.4084007   1.4378553   0.6010968  )
        46           H   tau(  46) = (   1.2700262   1.4225406   1.3532267  )
        47           O   tau(  47) = (   1.1526419   1.4795202   0.7958006  )
        48           O   tau(  48) = (   0.5257850   1.3808757   1.1585229  )
        49           H   tau(  49) = (   1.2214473   1.4140850   0.9439223  )
        50           H   tau(  50) = (   0.4569796   1.4463126   1.0104012  )
        51           H   tau(  51) = (   1.0441456   1.6029609   0.8585389  )
        52           H   tau(  52) = (   0.6342813   1.2574350   1.0957864  )
        53           Na  tau(  53) = (   0.3654635   1.0092565   0.2759497  )
        54           Na  tau(  54) = (   1.3129634   1.8511393   1.6783737  )
        55           Na  tau(  55) = (   0.8761358   1.1658728   0.6056453  )
        56           Na  tau(  56) = (   0.8022911   1.6945230   1.3486799  )
        57           O   tau(  57) = (   1.2198951   1.7543589   0.1002569  )
        58           O   tau(  58) = (   0.4585318   1.1060387   1.8540683  )
        59           H   tau(  59) = (   1.3557144   1.7207952   0.2069371  )
        60           H   tau(  60) = (   0.3227125   1.1396006   1.7473864  )
        61           H   tau(  61) = (   0.7597083   0.1796548   0.1184315  )
[...]
     atom    6 type  4   force =     0.00000000    0.00000000    0.00000000
     atom    7 type  5   force =    -0.00049951   -0.00066114   -0.00048615
     atom    8 type  5   force =     0.00049917    0.00066105    0.00048666
     atom    9 type  5   force =     0.00260929   -0.00328035    0.00511311
     atom   10 type  5   force =    -0.00260929    0.00328057   -0.00511358
     atom   11 type  5   force =     0.00138651    0.00010959    0.00035650
     atom   12 type  5   force =    -0.00138650   -0.00010934   -0.00035709
     atom   13 type  4   force =     0.00000000    0.00000000    0.00000000
     atom   14 type  4   force =     0.00000000    0.00000000    0.00000000
     atom   15 type  5   force =    -0.00206928    0.00163736   -0.00086926
     atom   16 type  5   force =     0.00206927   -0.00163764    0.00086993
     atom   17 type  4   force =     0.00000000    0.00000000    0.00000000
     atom   18 type  4   force =     0.00000000    0.00000000    0.00000000
     atom   19 type  5   force =     0.00167177   -0.00348275    0.00283868
     atom   20 type  5   force =    -0.00167172    0.00348289   -0.00283938
     atom   21 type  4   force =     0.00000000    0.00000000    0.00000000
     atom   22 type  4   force =     0.00000000    0.00000000    0.00000000
     atom   23 type  3   force =    -0.01338445    0.01617759   -0.01803591
     atom   24 type  3   force =     0.01338430   -0.01617745    0.01803634
     atom   25 type  3   force =    -0.00847777    0.01404800   -0.02242369
     atom   26 type  3   force =     0.00847786   -0.01404837    0.02242360
     atom   27 type  3   force =    -0.02006554   -0.01206051    0.01496930
     atom   28 type  3   force =     0.02006559    0.01206015   -0.01496945
     atom   29 type  3   force =     0.01589812   -0.01666283   -0.01492202
     atom   30 type  3   force =    -0.01589825    0.01666266    0.01492182
     atom   31 type  3   force =     0.01363553    0.01624468    0.01570768
     atom   32 type  3   force =    -0.01363530   -0.01624487   -0.01570779
     atom   33 type  2   force =    -0.00365937   -0.00060302   -0.00088400
     atom   34 type  2   force =     0.00365967    0.00060562    0.00088525
     atom   35 type  3   force =     0.00653470   -0.01744594    0.01992071
     atom   36 type  3   force =    -0.00653461    0.01744595   -0.01992084
     atom   37 type  4   force =     0.00000000    0.00000000    0.00000000
     atom   38 type  4   force =     0.00000000    0.00000000    0.00000000
     atom   39 type  4   force =     0.00000000    0.00000000    0.00000000
     atom   40 type  4   force =     0.00000000    0.00000000    0.00000000
     atom   41 type  3   force =     0.00459627   -0.02783113   -0.00661447
     atom   42 type  3   force =    -0.00459621    0.02783112    0.00661501
     atom   43 type  4   force =     0.00000000    0.00000000    0.00000000
     atom   44 type  4   force =     0.00000000    0.00000000    0.00000000
     atom   45 type  4   force =     0.00000000    0.00000000    0.00000000
     atom   46 type  4   force =     0.00000000    0.00000000    0.00000000
     atom   47 type  3   force =     0.01184794   -0.00017085   -0.02406057
     atom   48 type  3   force =    -0.01184801    0.00017073    0.02406048
     atom   49 type  4   force =     0.00000000    0.00000000    0.00000000
     atom   50 type  4   force =     0.00000000    0.00000000    0.00000000
     atom   51 type  4   force =     0.00000000    0.00000000    0.00000000
     atom   52 type  4   force =     0.00000000    0.00000000    0.00000000
     atom   53 type  1   force =     0.00000000    0.00000000    0.00000000
     atom   54 type  1   force =     0.00000000    0.00000000    0.00000000
     atom   55 type  1   force =     0.00000000    0.00000000    0.00000000
     atom   56 type  1   force =     0.00000000    0.00000000    0.00000000
     atom   57 type  3   force =    -0.01713918   -0.02333436   -0.00700342
     atom   58 type  3   force =     0.01713912    0.02333484    0.00700392
     atom   59 type  4   force =     0.00000000    0.00000000    0.00000000
     atom   60 type  4   force =     0.00000000    0.00000000    0.00000000
     atom   61 type  4   force =     0.00000000    0.00000000    0.00000000
     atom   62 type  4   force =     0.00000000    0.00000000    0.00000000
     The Hubbard contrib.    to forces
     atom    1 type  5   force =     0.00000000    0.00000000    0.00000000
     atom    2 type  5   force =     0.00000000    0.00000000    0.00000000
     atom    3 type  5   force =     0.00000000    0.00000000    0.00000000
     atom    4 type  5   force =     0.00000000    0.00000000    0.00000000
     atom    5 type  4   force =     0.00000000    0.00000000    0.00000000
     atom    6 type  4   force =     0.00000000    0.00000000    0.00000000
     atom    7 type  5   force =     0.00000000    0.00000000    0.00000000
     atom    8 type  5   force =     0.00000000    0.00000000    0.00000000
     atom    9 type  5   force =     0.00000000    0.00000000    0.00000000
     atom   10 type  5   force =     0.00000000    0.00000000    0.00000000
     atom   11 type  5   force =     0.00000000    0.00000000    0.00000000
     atom   12 type  5   force =     0.00000000    0.00000000    0.00000000
     atom   13 type  4   force =     0.00000000    0.00000000    0.00000000
     atom   14 type  4   force =     0.00000000    0.00000000    0.00000000
     atom   15 type  5   force =     0.00000000    0.00000000    0.00000000
     atom   16 type  5   force =     0.00000000    0.00000000    0.00000000
     atom   17 type  4   force =     0.00000000    0.00000000    0.00000000
     atom   18 type  4   force =     0.00000000    0.00000000    0.00000000
     atom   19 type  5   force =     0.00000000    0.00000000    0.00000000
     atom   20 type  5   force =     0.00000000    0.00000000    0.00000000
     atom   21 type  4   force =     0.00000000    0.00000000    0.00000000
     atom   22 type  4   force =     0.00000000    0.00000000    0.00000000
     atom   23 type  3   force =     0.00000000    0.00000000    0.00000000
     atom   24 type  3   force =     0.00000000    0.00000000    0.00000000
     atom   25 type  3   force =     0.00000000    0.00000000    0.00000000
     atom   26 type  3   force =     0.00000000    0.00000000    0.00000000
     atom   27 type  3   force =     0.00000000    0.00000000    0.00000000
     atom   28 type  3   force =     0.00000000    0.00000000    0.00000000
     atom   29 type  3   force =     0.00000000    0.00000000    0.00000000
     atom   30 type  3   force =     0.00000000    0.00000000    0.00000000
     atom   31 type  3   force =     0.00000000    0.00000000    0.00000000
     atom   32 type  3   force =     0.00000000    0.00000000    0.00000000
     atom   33 type  2   force =     0.00000000    0.00000000    0.00000000
     atom   34 type  2   force =     0.00000000    0.00000000    0.00000000
     atom   35 type  3   force =     0.00000000    0.00000000    0.00000000
     atom   36 type  3   force =     0.00000000    0.00000000    0.00000000
     atom   37 type  4   force =     0.00000000    0.00000000    0.00000000
     atom   38 type  4   force =     0.00000000    0.00000000    0.00000000
     atom   39 type  4   force =     0.00000000    0.00000000    0.00000000
     atom   40 type  4   force =     0.00000000    0.00000000    0.00000000
     atom   41 type  3   force =     0.00000000    0.00000000    0.00000000
     atom   42 type  3   force =     0.00000000    0.00000000    0.00000000
     atom   43 type  4   force =     0.00000000    0.00000000    0.00000000
     atom   44 type  4   force =     0.00000000    0.00000000    0.00000000
     atom   45 type  4   force =     0.00000000    0.00000000    0.00000000
     atom   46 type  4   force =     0.00000000    0.00000000    0.00000000
     atom   47 type  3   force =     0.00000000    0.00000000    0.00000000
     atom   48 type  3   force =     0.00000000    0.00000000    0.00000000
     atom   49 type  4   force =     0.00000000    0.00000000    0.00000000
     atom   50 type  4   force =     0.00000000    0.00000000    0.00000000
     atom   51 type  4   force =     0.00000000    0.00000000    0.00000000
     atom   52 type  4   force =     0.00000000    0.00000000    0.00000000
     atom   53 type  1   force =     0.00000000    0.00000000    0.00000000
     atom   54 type  1   force =     0.00000000    0.00000000    0.00000000
     atom   55 type  1   force =     0.00000000    0.00000000    0.00000000
     atom   56 type  1   force =     0.00000000    0.00000000    0.00000000
     atom   57 type  3   force =     0.00000000    0.00000000    0.00000000
     atom   58 type  3   force =     0.00000000    0.00000000    0.00000000
     atom   59 type  4   force =     0.00000000    0.00000000    0.00000000
     atom   60 type  4   force =     0.00000000    0.00000000    0.00000000
     atom   61 type  4   force =     0.00000000    0.00000000    0.00000000
     atom   62 type  4   force =     0.00000000    0.00000000    0.00000000
     The SCF correction term to forces
     atom    1 type  5   force =     0.00000824    0.00000146    0.00001019
     atom    2 type  5   force =    -0.00000815   -0.00000104   -0.00001049
     atom    3 type  5   force =    -0.00000545    0.00000016    0.00001583
     atom    4 type  5   force =     0.00000577    0.00000069   -0.00001732
     atom    5 type  4   force =    -0.00000118    0.00000039    0.00000162
     atom    6 type  4   force =     0.00000131   -0.00000025   -0.00000186
     atom    7 type  5   force =     0.00001244   -0.00000952    0.00000140
     atom    8 type  5   force =    -0.00001281    0.00001048   -0.00000254
     atom    9 type  5   force =     0.00001766   -0.00001573    0.00000803
     atom   10 type  5   force =    -0.00001827    0.00001663   -0.00000920
     atom   11 type  5   force =     0.00000331   -0.00000541    0.00001757
     atom   12 type  5   force =    -0.00000363    0.00000637   -0.00001880
     atom   13 type  4   force =    -0.00000240   -0.00000002    0.00000413
     atom   14 type  4   force =     0.00000249    0.00000011   -0.00000433
     atom   15 type  5   force =     0.00002003   -0.00000796    0.00000705
     atom   16 type  5   force =    -0.00002085    0.00000892   -0.00000724
     atom   17 type  4   force =     0.00000039    0.00000096    0.00000094
     atom   18 type  4   force =    -0.00000052   -0.00000089   -0.00000075
     atom   19 type  5   force =     0.00000500   -0.00001629    0.00001463
     atom   20 type  5   force =    -0.00000522    0.00001659   -0.00001485
     atom   21 type  4   force =    -0.00000160   -0.00000142    0.00000049
     atom   22 type  4   force =     0.00000160    0.00000155   -0.00000059
     atom   23 type  3   force =    -0.00000448   -0.00000866    0.00000155
     atom   24 type  3   force =     0.00000466    0.00000834   -0.00000198
     atom   25 type  3   force =     0.00000691   -0.00002501    0.00001253
     atom   26 type  3   force =    -0.00000720    0.00002466   -0.00001220
     atom   27 type  3   force =     0.00001502    0.00002877   -0.00001766
     atom   28 type  3   force =    -0.00001526   -0.00002962    0.00001928
     atom   29 type  3   force =    -0.00000283    0.00001980   -0.00000374
     atom   30 type  3   force =     0.00000333   -0.00002066    0.00000425
     atom   31 type  3   force =     0.00000032    0.00002829   -0.00000451
     atom   32 type  3   force =     0.00000022   -0.00002811    0.00000602
     atom   33 type  2   force =     0.00001406    0.00004393   -0.00001622
     atom   34 type  2   force =    -0.00001368   -0.00004467    0.00001769
     atom   35 type  3   force =    -0.00000476    0.00001531   -0.00001400
     atom   36 type  3   force =     0.00000471   -0.00001559    0.00001462
     atom   37 type  4   force =    -0.00000139    0.00000312   -0.00000247
     atom   38 type  4   force =     0.00000137   -0.00000314    0.00000259
     atom   39 type  4   force =    -0.00000057    0.00000166   -0.00000206
     atom   40 type  4   force =     0.00000056   -0.00000169    0.00000214
     atom   41 type  3   force =     0.00000504    0.00001066   -0.00002135
     atom   42 type  3   force =    -0.00000509   -0.00001148    0.00002139
     atom   43 type  4   force =    -0.00000002    0.00000090   -0.00000324
     atom   44 type  4   force =     0.00000001   -0.00000098    0.00000320
     atom   45 type  4   force =    -0.00000083    0.00000185   -0.00000211
     atom   46 type  4   force =     0.00000083   -0.00000198    0.00000208
     atom   47 type  3   force =     0.00000315    0.00001739   -0.00002109
     atom   48 type  3   force =    -0.00000311   -0.00001869    0.00002070
     atom   49 type  4   force =     0.00000111    0.00000140   -0.00000133
     atom   50 type  4   force =    -0.00000115   -0.00000165    0.00000130
     atom   51 type  4   force =     0.00000344   -0.00000106   -0.00000333
     atom   52 type  4   force =    -0.00000333    0.00000083    0.00000320
     atom   53 type  1   force =     0.00001239    0.00001362    0.00000475
     atom   54 type  1   force =    -0.00001249   -0.00001419   -0.00000367
     atom   55 type  1   force =    -0.00000891    0.00000177   -0.00002364
     atom   56 type  1   force =     0.00000922   -0.00000265    0.00002460
     atom   57 type  3   force =    -0.00000252    0.00000912   -0.00000396
     atom   58 type  3   force =     0.00000264   -0.00000847    0.00000449
     atom   59 type  4   force =    -0.00000088    0.00000125   -0.00000085
     atom   60 type  4   force =     0.00000090   -0.00000114    0.00000094
     atom   61 type  4   force =     0.00000037    0.00000144   -0.00000009
     atom   62 type  4   force =    -0.00000034   -0.00000135    0.00000020

     Total force =     0.004166     Total SCF correction =     0.000155

     entering subroutine stress ...

     Non-local correlation energy =              3.839579720804958

          VDW GRADIENT stress
             0.00005062   0.00000000   0.00000000
             0.00000248   0.00005171   0.00000000
             0.00000112   0.00000158   0.00004966

          VDW KERNEL stress
            -0.00031959   0.00000000   0.00000000
            -0.00004337  -0.00034386   0.00000000
            -0.00001352  -0.00003344  -0.00029698

          VDW ALL stress
             0.00026897   0.00004089   0.00001241
             0.00004089   0.00029215   0.00003186
             0.00001241   0.00003186   0.00024732

          total   stress  (Ry/bohr**3)                   (kbar)     P=    0.89
  -0.00000122  -0.00000413   0.00000070         -0.18     -0.61      0.10
  -0.00000413   0.00001220   0.00000089         -0.61      1.80      0.13
   0.00000070   0.00000089   0.00000721          0.10      0.13      1.06

     kinetic stress (kbar)  12547.56    110.63     14.84
                              110.63  12450.35    135.00
                               14.84    135.00  12597.05

     local   stress (kbar) -12537.74   4123.35    518.58
                             4123.35  -4903.35   1948.54
                              518.58   1948.54 -13740.33

     nonloc. stress (kbar)   1730.94    -11.20    -27.47
                              -11.20   1703.36     -4.55
                              -27.47     -4.55   1742.95

     hartree stress (kbar)   7038.50  -1351.85    -69.23
                            -1351.85   3610.18   -438.94
                              -69.23   -438.94   7259.24

     exc-cor stress (kbar)  -2118.75    -27.38    -10.99
                              -27.38  -2133.95    -17.56
                              -10.99    -17.56  -2109.59

     corecor stress (kbar)   -995.44      4.36      2.96
                                4.36   -990.99      2.07
                                2.96      2.07   -997.91

     ewald   stress (kbar)  -5704.82  -2854.53   -430.41
                            -2854.53  -9776.79  -1629.12
                             -430.41  -1629.12  -4786.73

     hubbard stress (kbar)      0.00      0.00      0.00
                                0.00      0.00      0.00
                                0.00      0.00      0.00

     london  stress (kbar)      0.00      0.00      0.00
                                0.00      0.00      0.00
                                0.00      0.00      0.00

     dft-nl  stress (kbar)     39.57      6.01      1.82
                                6.01     42.98      4.69
                                1.82      4.69     36.38

     Writing output data file i2t0429_ns_merc.xyz.save

     General routines

     Parallel routines

     PAW routines

   This run was terminated on:   5:45: 0  30Aug2011

   JOB DONE.