 Pseudo atomic calculation performed for Si 3s2 3p2

 Converged in 16 iterations to a total energy of -102.0354 eV

Calculation parallelised over    1 nodes.
K-points are distributed over    1 groups, each containing    1 nodes.

 ************************************ Title ************************************

 ***************************** General Parameters ******************************

 output verbosity                               : normal  (1)
 write checkpoint data to                       : Si2.check
 type of calculation                            : single point energy
 stress calculation                             : off
 density difference calculation                 : off
 unlimited duration calculation
 timing information                             : on
 write final potential to formatted file        : off
 write final density to formatted file          : off

 output         length unit                     : A
 output           mass unit                     : amu
 output           time unit                     : ps
 output         charge unit                     : e
 output         energy unit                     : eV
 output          force unit                     : eV/A
 output       velocity unit                     : A/ps
 output       pressure unit                     : GPa
 output     inv_length unit                     : 1/A
 output      frequency unit                     : cm-1
 output force constant unit                     : eV/A**2
 output         volume unit                     : A**3
 output   IR intensity unit                     : (D/A)**2/amu
 output         dipole unit                     : D
 output         efield unit                     : eV/A/e

 wavefunctions paging                           : none
 data distribution                              : optimal for this architecture
 optimization strategy                          : maximize speed(+++)

 *********************** Exchange-Correlation Parameters ***********************

 using functional                               : Local Density Approximation
 Divergence correction                          : off

 ************************* Pseudopotential Parameters **************************

 pseudopotential representation                 : reciprocal space
 <beta|phi> representation                      : reciprocal space

 **************************** Basis Set Parameters *****************************

 basis set accuracy                             : MEDIUM
 plane wave basis set cut-off                   :   120.0000   eV
 finite basis set correction                    : none

 **************************** Electronic Parameters ****************************

 number of  electrons                           :  8.000
 net charge of system                           :  0.000
 net spin   of system                           :  0.000
 number of  up  spins                           :  4.000
 number of down spins                           :  4.000
 treating system as non-spin-polarized
 number of bands                                :          4

 ********************* Electronic Minimization Parameters **********************

 Method: Treating system as non-metallic,
         and number of  SD  steps               :          1
         and number of  CG  steps               :          4

 total energy / atom convergence tol.           : 0.1000E-04   eV
 max force / atom convergence tol.              : ignored
 convergence tolerance window                   :          3   cycles
 max. number of SCF cycles                      :         30

 *********************** Population Analysis Parameters ************************

 Population analysis with cutoff                :  3.000       A

                                      Unit Cell
        Real Lattice(A)                      Reciprocal Lattice(1/A)
   2.6954645   2.6954645   0.0000000        1.1655107   1.1655107  -1.1655107
   2.6954645   0.0000000   2.6954645        1.1655107  -1.1655107   1.1655107
   0.0000000   2.6954645   2.6954645       -1.1655107   1.1655107   1.1655107

                       Lattice parameters(A)       Cell Angles
                    a =    3.811962          alpha =   60.000000
                    b =    3.811962          beta  =   60.000000
                    c =    3.811962          gamma =   60.000000

                       Current cell volume =   39.167950       A**3

                                     Cell Contents
                         Total number of ions in cell =    2
                      Total number of species in cell =    1
                        Max number of any one species =    2

            x  Element    Atom        Fractional coordinates of atoms  x
            x            Number           u          v          w      x
            x  Si           1         0.000000   0.000000   0.000000   x
            x  Si           2         0.250000   0.250000   0.250000   x

                         No user defined ionic velocities

                                   Details of Species

                               Mass of species in AMU
                                    Si   28.0855000

                          Electric Quadrupole Moment (Barn)
                                    Si    1.0000000 No Isotope Defined

                          Files used for pseudopotentials:
                                    Si Si_00.usp

                              k-Points For BZ Sampling
                       MP grid size for SCF calculation is  4  4  4
                         Number of kpoints used =          10

             +  Number       Fractional coordinates        Weight  +
             +     1  -0.125000  -0.125000   0.125000   0.0937500  +
             +     2   0.125000   0.125000   0.125000   0.0312500  +
             +     3  -0.375000   0.125000   0.125000   0.0937500  +
             +     4  -0.375000  -0.125000   0.375000   0.1875000  +
             +     5  -0.375000  -0.125000   0.125000   0.1875000  +
             +     6   0.375000   0.125000   0.125000   0.0937500  +
             +     7  -0.375000  -0.375000   0.375000   0.0937500  +
             +     8  -0.375000  -0.375000   0.125000   0.0937500  +
             +     9   0.375000   0.375000   0.125000   0.0937500  +
             +    10   0.375000   0.375000   0.375000   0.0312500  +

                               Symmetry and Constraints

                      Number of symmetry operations   =          48
                      Number of ionic constraints     =           3
           Set iprint > 1 for details on symmetry rotations/translations

                          Centre of mass is constrained
             Set iprint > 1 for details of linear ionic constraints

                         Number of cell constraints= 5
                         Cell constraints are:  1 1 1 0 0 0

                         External pressure/stress (GPa)
                          0.00000   0.00000   0.00000
                                    0.00000   0.00000
                                              0.00000
| Requirements will fluctuate during execution and may exceed these estimates |
------------------------------------------------------------------------ <-- SCF
SCF loop      Energy                           Energy gain       Timer   <-- SCF
                                               per atom          (sec)   <-- SCF
------------------------------------------------------------------------ <-- SCF
Initial   1.75536611E+002                                          2.79  <-- SCF
      1  -2.02461354E+002                    1.88998983E+002       3.61  <-- SCF
      2  -2.15037399E+002                    6.28802246E+000       4.42  <-- SCF
      3  -2.16083519E+002                    5.23060114E-001       5.22  <-- SCF
      4  -2.16090927E+002                    3.70354960E-003       5.99  <-- SCF
      5  -2.16090980E+002                    2.68349075E-005       6.76  <-- SCF
      6  -2.16090980E+002                    9.63376265E-008       7.61  <-- SCF
      7  -2.16090980E+002                    2.86599298E-009       8.57  <-- SCF
------------------------------------------------------------------------ <-- SCF

Final energy =  -216.0909804232     eV
(energy not corrected for finite basis set)

 ************** Symmetrised Forces ***************
 *          Cartesian components (eV/A)          *
 *              x            y            z      *
 * Si   1      0.00000      0.00000      0.00000 *
 * Si   2      0.00000      0.00000      0.00000 *

 Pseudo atomic calculation performed for Si 3s2 3p2

 Converged in 16 iterations to a total energy of -102.0354 eV

Charge spilling parameter for spin component 1 = 0.78%

     Atomic Populations
Species   Ion     s      p      d      f     Total  Charge (e)
  Si       1     1.35   2.65   0.00   0.00   4.00     0.00
  Si       2     1.35   2.65   0.00   0.00   4.00     0.00

     Bond                     Population      Length (A)
  Si 001 --   Si 002               2.99        2.33434

Writing model to Si2.check

Writing analysis data to Si2.castep_bin
Initialisation time =      1.57 s
Calculation time    =      7.68 s
Finalisation time   =      0.11 s
Total time          =      9.35 s